c WARNING: for repeatability, setting FPU to use double precision
d VARIABLES            122454       
d CONSTRAINTS          543080       
c ============================[ Problem Statistics ]=============================
c |                                                                             |
c |  Number of variables:        122454                                         |
c |  Number of clauses:          543080                                         |
c |  Parse time:                   0.09 s                                       |
c |                                                                             |
c ============================[ Search Statistics ]==============================
c | Conflicts |          ORIGINAL         |          LEARNT          | Progress |
c |           |    Vars  Clauses Literals |    Limit  Clauses Lit/Cl |          |
c ===============================================================================
c |       100 |  103566   489200  1186072 |   179373      100     20 | 15.425 % |
c |       250 |  103566   489200  1186072 |   197310      250     44 | 15.425 % |
c |       475 |  103566   489200  1186072 |   217041      475     56 | 15.425 % |
c |       812 |  103566   489200  1186072 |   238745      812     87 | 15.425 % |
c |      1318 |  103566   489200  1186072 |   262620     1318    104 | 15.425 % |
c |      2077 |  103566   489200  1186072 |   288882     2077    104 | 15.425 % |
c |      3216 |  103566   489200  1186072 |   317770     3216    145 | 15.425 % |
c |      4924 |  103566   489200  1186072 |   349547     4924    143 | 15.425 % |
c |      7486 |  103566   489200  1186072 |   384502     7486    169 | 15.425 % |
c |     11330 |  103566   489200  1186072 |   422952    11330    174 | 15.425 % |
c |     17096 |  103566   489200  1186072 |   465248    17096    181 | 15.425 % |
c |     25745 |  103566   489200  1186072 |   511773    25745    201 | 15.425 % |
c ===============================================================================
c restarts              : 126
c conflicts             : 35345          (2283 /sec)
c decisions             : 180438         (0.00 % random) (11655 /sec)
c propagations          : 80771191       (5217451 /sec)
c conflict literals     : 7169740        (12.11 % deleted)
d RESTARTS             126
d FAILURES             35345        
d NODES                180438       
d BACKTRACKS           180438       
d PROPAGATIONS         80771191     
d NOGOODSIZE           202.85 
d MEMORY               84.00 
d TIME                 15.481 

s SATISFIABLE
